
  32    1
  10

   0   0  10 2 3 4 5 6 7 8 10 17 22 
   6   1   8 31 30 29 21 20 19 12 9 
   2   3   9 31 30 28 27 26 21 20 19 11 
   3   2   7 29 28 26 19 16 14 11 
   3   1   5 28 27 26 21 13 
   5   1   5 29 25 21 19 15 
   9   5   6 30 29 28 25 24 23 
   2   2   5 27 26 25 19 18 
   8   2   5 28 27 26 24 23 
   8   2   4 29 24 20 18 
   7   1   3 25 24 18 
   7   1   3 26 25 18 
   4   1   3 25 19 18 
   5   3   2 24 20 
   9   1   2 24 18 
   4   1   2 27 23 
  10   1   2 30 23 
   3   1   1 23 
   3   3   1 23 
   3   4   1 23 
   9   2   1 24 
   4   1   1 23 
   8   2   1 32
   4   1   1 32
   4   3   1 32
   2   3   1 32
   3   1   1 32
   7   3   1 32
   8   2   1 32
   9   2   1 32
   8   4   1 32
   0   0   0 
